p cnf 325 575
1 2 3 4 5 0
6 7 8 9 10 0
11 12 13 14 15 0
16 17 18 19 20 0
21 22 23 24 25 0
26 27 28 29 30 0
31 32 33 34 35 0
36 37 38 39 40 0
41 42 43 44 45 0
46 47 48 49 50 0
51 52 53 54 55 0
56 57 58 59 60 0
61 62 63 64 65 0
66 67 68 69 70 0
71 72 73 74 75 0
76 77 78 79 80 0
81 82 83 84 85 0
86 87 88 89 90 0
91 92 93 94 95 0
96 97 98 99 100 0
101 102 103 104 105 0
106 107 108 109 110 0
111 112 113 114 115 0
116 117 118 119 120 0
121 122 123 124 125 0
-1 -129 0
-21 126 0
-6 -128 0
129 -128 0
-6 129 0
-11 -127 0
128 -127 0
-11 128 0
-16 -126 0
127 -126 0
-16 127 0
-2 -133 0
-22 130 0
-7 -132 0
133 -132 0
-7 133 0
-12 -131 0
132 -131 0
-12 132 0
-17 -130 0
131 -130 0
-17 131 0
-3 -137 0
-23 134 0
-8 -136 0
137 -136 0
-8 137 0
-13 -135 0
136 -135 0
-13 136 0
-18 -134 0
135 -134 0
-18 135 0
-4 -141 0
-24 138 0
-9 -140 0
141 -140 0
-9 141 0
-14 -139 0
140 -139 0
-14 140 0
-19 -138 0
139 -138 0
-19 139 0
-5 -145 0
-25 142 0
-10 -144 0
145 -144 0
-10 145 0
-15 -143 0
144 -143 0
-15 144 0
-20 -142 0
143 -142 0
-20 143 0
-26 -149 0
-46 146 0
-31 -148 0
149 -148 0
-31 149 0
-36 -147 0
148 -147 0
-36 148 0
-41 -146 0
147 -146 0
-41 147 0
-27 -153 0
-47 150 0
-32 -152 0
153 -152 0
-32 153 0
-37 -151 0
152 -151 0
-37 152 0
-42 -150 0
151 -150 0
-42 151 0
-28 -157 0
-48 154 0
-33 -156 0
157 -156 0
-33 157 0
-38 -155 0
156 -155 0
-38 156 0
-43 -154 0
155 -154 0
-43 155 0
-29 -161 0
-49 158 0
-34 -160 0
161 -160 0
-34 161 0
-39 -159 0
160 -159 0
-39 160 0
-44 -158 0
159 -158 0
-44 159 0
-30 -165 0
-50 162 0
-35 -164 0
165 -164 0
-35 165 0
-40 -163 0
164 -163 0
-40 164 0
-45 -162 0
163 -162 0
-45 163 0
-51 -169 0
-71 166 0
-56 -168 0
169 -168 0
-56 169 0
-61 -167 0
168 -167 0
-61 168 0
-66 -166 0
167 -166 0
-66 167 0
-52 -173 0
-72 170 0
-57 -172 0
173 -172 0
-57 173 0
-62 -171 0
172 -171 0
-62 172 0
-67 -170 0
171 -170 0
-67 171 0
-53 -177 0
-73 174 0
-58 -176 0
177 -176 0
-58 177 0
-63 -175 0
176 -175 0
-63 176 0
-68 -174 0
175 -174 0
-68 175 0
-54 -181 0
-74 178 0
-59 -180 0
181 -180 0
-59 181 0
-64 -179 0
180 -179 0
-64 180 0
-69 -178 0
179 -178 0
-69 179 0
-55 -185 0
-75 182 0
-60 -184 0
185 -184 0
-60 185 0
-65 -183 0
184 -183 0
-65 184 0
-70 -182 0
183 -182 0
-70 183 0
-76 -189 0
-96 186 0
-81 -188 0
189 -188 0
-81 189 0
-86 -187 0
188 -187 0
-86 188 0
-91 -186 0
187 -186 0
-91 187 0
-77 -193 0
-97 190 0
-82 -192 0
193 -192 0
-82 193 0
-87 -191 0
192 -191 0
-87 192 0
-92 -190 0
191 -190 0
-92 191 0
-78 -197 0
-98 194 0
-83 -196 0
197 -196 0
-83 197 0
-88 -195 0
196 -195 0
-88 196 0
-93 -194 0
195 -194 0
-93 195 0
-79 -201 0
-99 198 0
-84 -200 0
201 -200 0
-84 201 0
-89 -199 0
200 -199 0
-89 200 0
-94 -198 0
199 -198 0
-94 199 0
-80 -205 0
-100 202 0
-85 -204 0
205 -204 0
-85 205 0
-90 -203 0
204 -203 0
-90 204 0
-95 -202 0
203 -202 0
-95 203 0
-101 -209 0
-121 206 0
-106 -208 0
209 -208 0
-106 209 0
-111 -207 0
208 -207 0
-111 208 0
-116 -206 0
207 -206 0
-116 207 0
-102 -213 0
-122 210 0
-107 -212 0
213 -212 0
-107 213 0
-112 -211 0
212 -211 0
-112 212 0
-117 -210 0
211 -210 0
-117 211 0
-103 -217 0
-123 214 0
-108 -216 0
217 -216 0
-108 217 0
-113 -215 0
216 -215 0
-113 216 0
-118 -214 0
215 -214 0
-118 215 0
-104 -221 0
-124 218 0
-109 -220 0
221 -220 0
-109 221 0
-114 -219 0
220 -219 0
-114 220 0
-119 -218 0
219 -218 0
-119 219 0
-105 -225 0
-125 222 0
-110 -224 0
225 -224 0
-110 225 0
-115 -223 0
224 -223 0
-115 224 0
-120 -222 0
223 -222 0
-120 223 0
-1 -229 0
-101 226 0
-26 -228 0
229 -228 0
-26 229 0
-51 -227 0
228 -227 0
-51 228 0
-76 -226 0
227 -226 0
-76 227 0
-2 -233 0
-102 230 0
-27 -232 0
233 -232 0
-27 233 0
-52 -231 0
232 -231 0
-52 232 0
-77 -230 0
231 -230 0
-77 231 0
-3 -237 0
-103 234 0
-28 -236 0
237 -236 0
-28 237 0
-53 -235 0
236 -235 0
-53 236 0
-78 -234 0
235 -234 0
-78 235 0
-4 -241 0
-104 238 0
-29 -240 0
241 -240 0
-29 241 0
-54 -239 0
240 -239 0
-54 240 0
-79 -238 0
239 -238 0
-79 239 0
-5 -245 0
-105 242 0
-30 -244 0
245 -244 0
-30 245 0
-55 -243 0
244 -243 0
-55 244 0
-80 -242 0
243 -242 0
-80 243 0
-6 -249 0
-106 246 0
-31 -248 0
249 -248 0
-31 249 0
-56 -247 0
248 -247 0
-56 248 0
-81 -246 0
247 -246 0
-81 247 0
-7 -253 0
-107 250 0
-32 -252 0
253 -252 0
-32 253 0
-57 -251 0
252 -251 0
-57 252 0
-82 -250 0
251 -250 0
-82 251 0
-8 -257 0
-108 254 0
-33 -256 0
257 -256 0
-33 257 0
-58 -255 0
256 -255 0
-58 256 0
-83 -254 0
255 -254 0
-83 255 0
-9 -261 0
-109 258 0
-34 -260 0
261 -260 0
-34 261 0
-59 -259 0
260 -259 0
-59 260 0
-84 -258 0
259 -258 0
-84 259 0
-10 -265 0
-110 262 0
-35 -264 0
265 -264 0
-35 265 0
-60 -263 0
264 -263 0
-60 264 0
-85 -262 0
263 -262 0
-85 263 0
-11 -269 0
-111 266 0
-36 -268 0
269 -268 0
-36 269 0
-61 -267 0
268 -267 0
-61 268 0
-86 -266 0
267 -266 0
-86 267 0
-12 -273 0
-112 270 0
-37 -272 0
273 -272 0
-37 273 0
-62 -271 0
272 -271 0
-62 272 0
-87 -270 0
271 -270 0
-87 271 0
-13 -277 0
-113 274 0
-38 -276 0
277 -276 0
-38 277 0
-63 -275 0
276 -275 0
-63 276 0
-88 -274 0
275 -274 0
-88 275 0
-14 -281 0
-114 278 0
-39 -280 0
281 -280 0
-39 281 0
-64 -279 0
280 -279 0
-64 280 0
-89 -278 0
279 -278 0
-89 279 0
-15 -285 0
-115 282 0
-40 -284 0
285 -284 0
-40 285 0
-65 -283 0
284 -283 0
-65 284 0
-90 -282 0
283 -282 0
-90 283 0
-16 -289 0
-116 286 0
-41 -288 0
289 -288 0
-41 289 0
-66 -287 0
288 -287 0
-66 288 0
-91 -286 0
287 -286 0
-91 287 0
-17 -293 0
-117 290 0
-42 -292 0
293 -292 0
-42 293 0
-67 -291 0
292 -291 0
-67 292 0
-92 -290 0
291 -290 0
-92 291 0
-18 -297 0
-118 294 0
-43 -296 0
297 -296 0
-43 297 0
-68 -295 0
296 -295 0
-68 296 0
-93 -294 0
295 -294 0
-93 295 0
-19 -301 0
-119 298 0
-44 -300 0
301 -300 0
-44 301 0
-69 -299 0
300 -299 0
-69 300 0
-94 -298 0
299 -298 0
-94 299 0
-20 -305 0
-120 302 0
-45 -304 0
305 -304 0
-45 305 0
-70 -303 0
304 -303 0
-70 304 0
-95 -302 0
303 -302 0
-95 303 0
-21 -309 0
-121 306 0
-46 -308 0
309 -308 0
-46 309 0
-71 -307 0
308 -307 0
-71 308 0
-96 -306 0
307 -306 0
-96 307 0
-22 -313 0
-122 310 0
-47 -312 0
313 -312 0
-47 313 0
-72 -311 0
312 -311 0
-72 312 0
-97 -310 0
311 -310 0
-97 311 0
-23 -317 0
-123 314 0
-48 -316 0
317 -316 0
-48 317 0
-73 -315 0
316 -315 0
-73 316 0
-98 -314 0
315 -314 0
-98 315 0
-24 -321 0
-124 318 0
-49 -320 0
321 -320 0
-49 321 0
-74 -319 0
320 -319 0
-74 320 0
-99 -318 0
319 -318 0
-99 319 0
-25 -325 0
-125 322 0
-50 -324 0
325 -324 0
-50 325 0
-75 -323 0
324 -323 0
-75 324 0
-100 -322 0
323 -322 0
-100 323 0
